BAYES
37
2 3 2 2 3 2 2 2 2 2 2 2 4 3 2 3 3 2 3 4 3 3 4 4 4 4 3 3 4 3 2 3 3 3 3 3 3
37
1 0
1 1
1 2
1 3
1 4
1 5
1 6
1 7
1 8
1 9
1 10
1 11
2 4 12
2 6 13
3 6 1 14
3 7 9 15
3 7 9 16
2 9 17
2 11 18
3 2 12 19
2 15 20
2 15 21
4 5 1 19 22
4 5 1 19 23
3 1 22 24
3 1 22 25
2 24 26
3 8 24 27
3 22 26 28
3 27 14 29
5 10 18 29 26 30
2 30 31
3 0 31 32
3 16 31 33
3 3 31 34
3 3 31 35
3 18 33 36
2
 0.05 0.95
3
 0.92 0.03 0.05
2
 0.1 0.9
2
 0.1 0.9
3
 0.05 0.9 0.05
2
 0.04 0.96
2
 0.01 0.99
2
 0.2 0.8
2
 0.05 0.95
2
 0.05 0.95
2
 0.1 0.9
2
 0.01 0.99
12
 0.05 0.93 0.01 0.01 0.05 0.01 0.93 0.01 0.05 0.01 0.01 0.93
6
 0.01 0.19 0.8 0.05 0.9 0.05
12
 0.1 0.9 0.1 0.9 0.01 0.99 0.95 0.05 0.95 0.05 0.05 0.95
12
 0.95 0.04 0.01 0.98 0.01 0.01 0.01 0.09 0.9 0.05 0.9 0.05
12
 0.98 0.01 0.01 0.95 0.04 0.01 0.5 0.49 0.01 0.05 0.9 0.05
4
 0.9 0.1 0.01 0.99
6
 0.98 0.01 0.01 0.3 0.4 0.3
32
 0.97 0.01 0.01 0.01 0.97 0.01 0.01 0.01 0.97 0.01 0.01 0.01 0.97 0.01 0.01 0.01 0.97 0.01 0.01 0.01 0.01 0.97 0.01 0.01 0.01 0.01 0.97 0.01 0.01 0.01 0.01 0.97
9
 0.95 0.04 0.01 0.04 0.95 0.01 0.01 0.04 0.95
9
 0.95 0.04 0.01 0.04 0.95 0.01 0.01 0.29 0.7
96
 0.97 0.01 0.01 0.01 0.95 0.03 0.01 0.01 0.4 0.58 0.01 0.01 0.3 0.68 0.01 0.01 0.97 0.01 0.01 0.01 0.97 0.01 0.01 0.01 0.97 0.01 0.01 0.01 0.97 0.01 0.01 0.01 0.97 0.01 0.01 0.01 0.95 0.03 0.01 0.01 0.5 0.48 0.01 0.01 0.3 0.68 0.01 0.01 0.97 0.01 0.01 0.01 0.01 0.97 0.01 0.01 0.01 0.01 0.97 0.01 0.01 0.01 0.01 0.97 0.97 0.01 0.01 0.01 0.97 0.01 0.01 0.01 0.97 0.01 0.01 0.01 0.97 0.01 0.01 0.01 0.97 0.01 0.01 0.01 0.01 0.97 0.01 0.01 0.01 0.01 0.97 0.01 0.01 0.01 0.01 0.97
96
 0.97 0.01 0.01 0.01 0.01 0.3 0.49 0.2 0.01 0.01 0.08 0.9 0.01 0.01 0.01 0.97 0.97 0.01 0.01 0.01 0.1 0.84 0.05 0.01 0.05 0.25 0.25 0.45 0.01 0.15 0.25 0.59 0.97 0.01 0.01 0.01 0.01 0.29 0.3 0.4 0.01 0.01 0.08 0.9 0.01 0.01 0.01 0.97 0.97 0.01 0.01 0.01 0.01 0.97 0.01 0.01 0.01 0.01 0.97 0.01 0.01 0.01 0.01 0.97 0.97 0.01 0.01 0.01 0.4 0.58 0.01 0.01 0.2 0.75 0.04 0.01 0.2 0.7 0.09 0.01 0.97 0.01 0.01 0.01 0.01 0.9 0.08 0.01 0.01 0.01 0.38 0.6 0.01 0.01 0.01 0.97
48
 0.97 0.01 0.01 0.01 0.01 0.97 0.01 0.01 0.01 0.01 0.97 0.01 0.01 0.01 0.01 0.97 0.97 0.01 0.01 0.01 0.01 0.97 0.01 0.01 0.01 0.01 0.97 0.01 0.01 0.01 0.01 0.97 0.97 0.01 0.01 0.01 0.03 0.95 0.01 0.01 0.01 0.94 0.04 0.01 0.01 0.88 0.1 0.01
48
 0.97 0.01 0.01 0.01 0.01 0.97 0.01 0.01 0.01 0.01 0.97 0.01 0.01 0.01 0.01 0.97 0.97 0.01 0.01 0.01 0.6 0.38 0.01 0.01 0.5 0.48 0.01 0.01 0.5 0.48 0.01 0.01 0.97 0.01 0.01 0.01 0.01 0.97 0.01 0.01 0.01 0.01 0.97 0.01 0.01 0.01 0.01 0.97
12
 0.01 0.01 0.98 0.01 0.01 0.98 0.04 0.92 0.04 0.9 0.09 0.01
24
 1.0 0.0 0.0 0.99 0.01 0.0 0.95 0.04 0.01 0.95 0.04 0.01 1.0 0.0 0.0 0.95 0.04 0.01 0.01 0.95 0.04 0.01 0.01 0.98
48
 0.97 0.01 0.01 0.01 0.01 0.97 0.01 0.01 0.01 0.97 0.01 0.01 0.01 0.97 0.01 0.01 0.97 0.01 0.01 0.01 0.01 0.01 0.97 0.01 0.01 0.01 0.97 0.01 0.01 0.01 0.97 0.01 0.97 0.01 0.01 0.01 0.01 0.01 0.01 0.97 0.01 0.01 0.01 0.97 0.01 0.01 0.01 0.97
18
 0.98 0.01 0.01 0.01 0.98 0.01 0.01 0.01 0.98 0.98 0.01 0.01 0.98 0.01 0.01 0.69 0.3 0.01
108
 0.01 0.99 0.01 0.99 0.01 0.99 0.01 0.99 0.01 0.99 0.01 0.99 0.01 0.99 0.01 0.99 0.01 0.99 0.01 0.99 0.01 0.99 0.01 0.99 0.01 0.99 0.01 0.99 0.01 0.99 0.05 0.95 0.05 0.95 0.01 0.99 0.01 0.99 0.01 0.99 0.01 0.99 0.05 0.95 0.05 0.95 0.01 0.99 0.05 0.95 0.05 0.95 0.01 0.99 0.05 0.95 0.05 0.95 0.01 0.99 0.05 0.95 0.05 0.95 0.01 0.99 0.05 0.95 0.05 0.95 0.01 0.99 0.7 0.3 0.7 0.3 0.1 0.9 0.7 0.3 0.7 0.3 0.1 0.9 0.7 0.3 0.7 0.3 0.1 0.9 0.95 0.05 0.99 0.01 0.3 0.7 0.95 0.05 0.99 0.01 0.3 0.7 0.95 0.05 0.99 0.01 0.3 0.7
6
 0.05 0.9 0.05 0.01 0.09 0.9
18
 0.98 0.01 0.01 0.4 0.59 0.01 0.3 0.4 0.3 0.98 0.01 0.01 0.01 0.98 0.01 0.01 0.01 0.98
27
 0.98 0.01 0.01 0.95 0.04 0.01 0.8 0.19 0.01 0.95 0.04 0.01 0.04 0.95 0.01 0.01 0.04 0.95 0.3 0.69 0.01 0.01 0.3 0.69 0.01 0.01 0.98
18
 0.33333333 0.33333333 0.33333333 0.33333333 0.33333333 0.33333333 0.33333333 0.33333333 0.33333333 0.98 0.01 0.01 0.01 0.98 0.01 0.01 0.01 0.98
18
 0.33333333 0.33333333 0.33333333 0.33333333 0.33333333 0.33333333 0.33333333 0.33333333 0.33333333 0.98 0.01 0.01 0.01 0.98 0.01 0.01 0.01 0.98
27
 0.98 0.01 0.01 0.98 0.01 0.01 0.9 0.09 0.01 0.98 0.01 0.01 0.1 0.85 0.05 0.05 0.2 0.75 0.3 0.6 0.1 0.05 0.4 0.55 0.01 0.09 0.9
